qbf_easy_train/easy_3938_UNSAT.qdimacs
p cnf 43 122
a 3 14 39 0
e 1 2 4 5 6 7 8 9 10 11 12 13 15 16 17 18 19 20 21 22 23 24 25 26 27 28 29 30 31 32 33 34 35 36 37 38 40 41 42 43 0
4 -2 0
4 3 0
2 -3 -4 0
-5 -4 0
-5 -4 0
4 5 0
6 -1 0
6 5 0
1 -5 -6 0
9 -7 0
9 -8 0
7 8 -9 0
10 -1 0
10 -9 0
1 9 -10 0
-12 -7 0
-12 -11 0
7 11 12 0
13 12 0
13 11 0
-12 -11 -13 0
-14 -7 -15 0
14 7 -15 0
-14 7 15 0
14 -7 15 0
-16 15 0
-16 5 0
-15 -5 16 0
-17 -13 0
-17 -16 0
13 16 17 0
-18 10 0
-18 -17 0
-10 17 18 0
-12 -3 -19 0
12 3 -19 0
-12 3 19 0
12 -3 19 0
20 -15 0
20 -14 0
15 14 -20 0
-21 -20 0
-21 -14 0
20 14 21 0
-22 -19 0
-22 -21 0
19 21 22 0
-23 -18 0
-23 -22 0
18 22 23 0
-24 -6 0
-24 23 0
6 -23 24 0
25 12 0
25 -16 0
-12 16 -25 0
26 8 0
26 -5 0
-8 5 -26 0
-27 25 0
-27 26 0
-25 -26 27 0
28 24 0
28 -27 0
-24 27 -28 0
-29 -13 0
-29 1 0
13 -1 29 0
30 -1 0
30 3 0
1 -3 -30 0
30 31 -32 0
-30 -31 -32 0
30 -31 32 0
-30 31 32 0
33 9 0
33 9 0
-9 -33 0
34 -11 0
34 20 0
11 -20 -34 0
-35 33 0
-35 -34 0
-33 34 35 0
-36 -32 0
-36 35 0
32 -35 36 0
37 -29 0
37 -36 0
29 36 -37 0
-28 -37 -38 0
28 37 -38 0
-28 37 38 0
28 -37 38 0
-13 -20 -39 0
13 20 -39 0
-13 20 39 0
13 -20 39 0
-40 -13 0
-40 39 0
13 -39 40 0
41 -4 0
41 15 0
4 -15 -41 0
42 40 0
42 41 0
-40 -41 -42 0
43 38 0
43 -42 0
-38 42 -43 0
-34 36 -7 0
29 8 6 -34 26 13 -33 -27 0
-11 -12 -31 -37 40 35 30 10 0
5 33 -42 0
-28 -5 -9 0
-36 9 -41 0
11 12 5 -27 37 -17 0
32 -11 -36 30 -2 0
39 21 -15 -2 0
-25 -37 -31 0
-37 13 -25 0
43 0
