sat_easy_train/easy_3938_UNSAT.dimacs
p cnf 137 464
5 3 0
5 -4 0
-3 4 -5 0
-6 -2 0
-6 -5 0
2 5 6 0
7 -1 0
7 -6 0
1 6 -7 0
9 8 0
9 -5 0
-8 5 -9 0
-7 9 -10 0
7 -9 -10 0
-7 -9 10 0
7 9 10 0
-10 5 -11 0
10 -5 -11 0
-10 -5 11 0
10 5 11 0
-1 -6 -12 0
1 6 -12 0
-1 6 12 0
1 -6 12 0
-3 12 -13 0
3 -12 -13 0
-3 -12 13 0
3 12 13 0
14 11 0
14 -13 0
-11 13 -14 0
16 -1 0
16 -15 0
1 15 -16 0
17 6 0
17 -16 0
-6 16 -17 0
18 17 0
18 -17 0
21 -19 0
21 20 0
19 -20 -21 0
-18 -21 -22 0
18 21 -22 0
-18 21 22 0
18 -21 22 0
-23 14 0
-23 -22 0
-14 22 23 0
25 1 0
25 -24 0
-1 24 -25 0
-26 25 0
-26 4 0
-25 -4 26 0
-3 26 -27 0
3 -26 -27 0
-3 -26 27 0
3 26 27 0
12 17 -28 0
-12 -17 -28 0
12 -17 28 0
-12 17 28 0
-29 28 0
-29 6 0
-28 -6 29 0
-27 -29 -30 0
27 29 -30 0
-27 29 30 0
27 -29 30 0
-30 21 -31 0
30 -21 -31 0
-30 -21 31 0
30 21 31 0
-33 -31 0
-33 -32 0
31 32 33 0
-35 -33 0
-35 34 0
33 -34 35 0
35 1 -36 0
-35 -1 -36 0
35 -1 36 0
-35 1 36 0
37 -23 0
37 -36 0
23 36 -37 0
-39 17 0
-39 -38 0
-17 38 39 0
39 -7 -40 0
-39 7 -40 0
39 7 40 0
-39 -7 40 0
-37 40 -41 0
37 -40 -41 0
-37 -40 41 0
37 40 41 0
42 -12 0
42 15 0
12 -15 -42 0
-44 -38 0
-44 43 0
38 -43 44 0
46 -12 0
46 -45 0
12 45 -46 0
47 -44 0
47 -46 0
44 46 -47 0
48 -34 0
48 -9 0
34 9 -48 0
48 -49 -50 0
-48 49 -50 0
48 49 50 0
-48 -49 50 0
-51 -5 0
-51 -50 0
5 50 51 0
47 -51 -52 0
-47 51 -52 0
47 51 52 0
-47 -51 52 0
53 16 0
53 -52 0
-16 52 -53 0
-54 -53 0
-54 -27 0
53 27 54 0
42 -54 -55 0
-42 54 -55 0
42 54 55 0
-42 -54 55 0
-5 -45 -56 0
5 45 -56 0
-5 45 56 0
5 -45 56 0
56 -52 -57 0
-56 52 -57 0
56 52 57 0
-56 -52 57 0
19 -44 -58 0
-19 44 -58 0
19 44 58 0
-19 -44 58 0
59 58 0
59 -5 0
-58 5 -59 0
-60 -51 0
-60 59 0
51 -59 60 0
-61 -24 0
-61 -3 0
24 3 61 0
62 -48 0
62 -61 0
48 61 -62 0
60 -62 -63 0
-60 62 -63 0
60 62 63 0
-60 -62 63 0
64 57 0
64 63 0
-57 -63 -64 0
-55 -64 -65 0
55 64 -65 0
-55 64 65 0
55 -64 65 0
-66 -47 0
-66 -29 0
47 29 66 0
66 52 -67 0
-66 -52 -67 0
66 -52 67 0
-66 52 67 0
68 -18 0
68 -67 0
18 67 -68 0
69 6 0
69 38 0
-6 -38 -69 0
68 -69 -70 0
-68 69 -70 0
68 69 70 0
-68 -69 70 0
-71 -65 0
-71 -70 0
65 70 71 0
-72 41 0
-72 71 0
-41 -71 72 0
73 29 0
73 24 0
-29 -24 -73 0
-74 47 0
-74 49 0
-47 -49 74 0
75 -15 0
75 -20 0
15 20 -75 0
76 45 0
76 -75 0
-45 75 -76 0
-77 3 0
-77 -52 0
-3 52 77 0
-78 76 0
-78 77 0
-76 -77 78 0
74 -78 -79 0
-74 78 -79 0
74 78 79 0
-74 -78 79 0
-80 -9 0
-80 -24 0
9 24 80 0
80 3 -81 0
-80 -3 -81 0
80 -3 81 0
-80 3 81 0
-82 45 0
-82 -81 0
-45 81 82 0
83 49 0
83 -45 0
-49 45 -83 0
82 83 -84 0
-82 -83 -84 0
82 -83 84 0
-82 83 84 0
-2 43 -85 0
2 -43 -85 0
-2 -43 85 0
2 43 85 0
86 81 0
86 -85 0
-81 85 -86 0
87 5 0
87 -43 0
-5 43 -87 0
89 87 0
89 88 0
-87 -88 -89 0
90 9 0
90 -24 0
-9 24 -90 0
90 3 -91 0
-90 -3 -91 0
90 -3 91 0
-90 3 91 0
46 -9 -92 0
-46 9 -92 0
46 9 92 0
-46 -9 92 0
93 -91 0
93 92 0
91 -92 -93 0
-94 -1 0
-94 -85 0
1 85 94 0
-93 -94 -95 0
93 94 -95 0
-93 94 95 0
93 -94 95 0
-96 -89 0
-96 95 0
89 -95 96 0
-97 -86 0
-97 96 0
86 -96 97 0
84 -97 -98 0
-84 97 -98 0
84 97 98 0
-84 -97 98 0
99 -79 0
99 98 0
79 -98 -99 0
73 99 -100 0
-73 -99 -100 0
73 -99 100 0
-73 99 100 0
101 -4 0
101 -5 0
4 5 -101 0
102 32 0
102 -101 0
-32 101 -102 0
103 -85 0
103 -12 0
85 12 -103 0
-104 102 0
-104 103 0
-102 -103 104 0
59 52 -105 0
-59 -52 -105 0
59 -52 105 0
-59 52 105 0
106 104 0
106 105 0
-104 -105 -106 0
107 -100 0
107 106 0
100 -106 -107 0
-72 -107 -108 0
72 107 -108 0
-72 107 108 0
72 -107 108 0
-109 45 0
-109 -21 0
-45 21 109 0
110 -109 0
110 -45 0
109 45 -110 0
-111 110 0
-111 62 0
-110 -62 111 0
-111 -52 -112 0
111 52 -112 0
-111 52 112 0
111 -52 112 0
113 58 0
113 -5 0
-58 5 -113 0
-114 66 0
-114 -75 0
-66 75 114 0
29 -30 -115 0
-29 30 -115 0
29 30 115 0
-29 -30 115 0
-116 44 0
-116 34 0
-44 -34 116 0
117 115 0
117 -116 0
-115 116 -117 0
46 49 -118 0
-46 -49 -118 0
46 -49 118 0
-46 49 118 0
119 -118 0
119 -52 0
118 52 -119 0
120 117 0
120 -119 0
-117 119 -120 0
114 -120 -121 0
-114 120 -121 0
114 120 121 0
-114 -120 121 0
-122 113 0
-122 -121 0
-113 121 122 0
-123 62 0
-123 16 0
-62 -16 123 0
-124 123 0
-124 24 0
-123 -24 124 0
9 -20 -125 0
-9 20 -125 0
9 20 125 0
-9 -20 125 0
126 -124 0
126 -125 0
124 125 -126 0
127 -122 0
127 126 0
122 -126 -127 0
128 112 0
128 -127 0
-112 127 -128 0
-129 108 0
-129 128 0
-108 -128 129 0
12 5 -130 0
-12 -5 -130 0
12 -5 130 0
-12 5 130 0
131 -129 0
131 130 0
129 -130 -131 0
132 58 0
132 -3 0
-58 3 -132 0
-6 -21 -133 0
6 21 -133 0
-6 21 133 0
6 -21 133 0
134 -28 0
134 109 0
28 -109 -134 0
-135 -133 0
-135 -134 0
133 134 135 0
-136 -132 0
-136 -135 0
132 135 136 0
-131 136 -137 0
131 -136 -137 0
-131 -136 137 0
131 136 137 0
-124 -1 -15 -16 0
-123 69 33 79 0
-72 -20 0
35 89 63 -137 0
23 64 40 0
134 29 0
49 -55 -37 -110 43 0
-79 -125 0
-60 32 80 0
-69 -23 -2 0
114 -70 0
-43 134 21 -132 -85 46 0
-46 -87 -85 0
-65 -68 48 -38 -127 0
-28 95 -115 -50 0
-64 -49 -62 -18 121 0
11 -98 54 -14 -58 -125 0
102 36 -122 67 -19 14 0
-115 32 -130 0
81 -90 95 57 96 0
-129 -32 78 -19 -91 -115 0
-103 -17 -3 18 -89 31 0
125 -133 -124 -41 -99 -87 0
-5 -16 -89 17 131 117 0
114 -79 56 0
25 -38 63 0
70 -90 0
-112 51 -100 -38 0
-122 -4 101 -108 -124 0
-71 121 48 81 63 0
76 -88 113 105 -36 104 0
-38 -60 -10 39 116 33 0
78 32 -120 0
120 101 -106 -69 0
84 -53 -71 0
-50 -103 45 -75 47 42 0
88 -106 0
11 76 64 59 -107 121 0
-76 -22 -63 -33 -98 -34 0
-58 80 -85 -106 0
-77 96 -17 119 0
85 -90 -127 -75 102 0
69 123 133 0
38 99 -72 -11 -112 0
-112 49 0
130 122 -2 -42 0
-38 46 -134 -58 0
-26 -52 -30 118 0
-84 -82 -125 -7 0
34 124 102 0
-76 -35 -48 0
-97 -15 -17 33 0
97 11 -99 0
-113 -103 0
98 -132 -105 -24 0
-44 119 58 -4 -103 0
120 93 102 0
131 94 116 0
44 -137 8 91 0
23 119 0
137 0
